
Gurobi 9.0.1 (mac64, gurobi_cl) logging started Sun Mar 22 21:02:14 2020

Using license file /Users/quannguyen/gurobi.lic
Set parameter LogFile to value gurobi.log
Academic license - for non-commercial use only

Gurobi Optimizer version 9.0.1 build v9.0.1rc0 (mac64)
Copyright (c) 2020, Gurobi Optimization, LLC

Read LP format model from file /var/folders/wm/cr9_rg9d40sbj5kr5lkgwrlh0000gn/T/550cedf36d83449dabefe47696301388-pulp.lp
Reading time = 0.23 seconds
OBJ: 85271 rows, 71056 columns, 269136 nonzeros
Optimize a model with 85271 rows, 71056 columns and 269136 nonzeros
Model fingerprint: 0x20764727
Variable types: 1 continuous, 71055 integer (71055 binary)
Coefficient statistics:
  Matrix range     [5e-06, 1e+00]
  Objective range  [1e+00, 1e+00]
  Bounds range     [3e-01, 1e+00]
  RHS range        [1e+00, 6e+03]
Presolve removed 73222 rows and 23318 columns
Presolve time: 0.31s
Presolved: 12049 rows, 47738 columns, 95482 nonzeros
Variable types: 1 continuous, 47737 integer (47735 binary)

Explored 0 nodes (0 simplex iterations) in 0.38 seconds
Thread count was 12 (of 12 available processors)

Solution count 0

Solve interrupted
Best objective -, best bound 2.577602300000e-01, gap -

Unable to retrieve attribute 'X'

